/*********************************************
 * OPL 12.6.0.0 Data
 * Author: Adrian Rodriguez Bazaga, Pau Rodriguez Esmerats
 * Creation Date: 06/12/2017 at 23:03:08
 *********************************************/

nNurses=255;
maxConsec=2;
maxPresence=7;
maxHours=5;
minHours=1;
hours=24;
demand= [50 42 68 64 42 68 64 43 41 22 7 11 9 13 13 12 9 5 6 2 28 63 39 55  ];
